NAME : E076A10r.1614.tour
COMMENT : Cost = 0_1614
COMMENT : Found by LKH [Keld Helsgaun] Sun May  7 02:12:34 2017
TYPE : TOUR
DIMENSION : 85
TOUR_SECTION
1
7
9
10
3
2
11
6
13
80
54
46
55
33
45
30
61
51
14
28
77
60
36
44
39
57
79
63
64
58
56
62
85
16
4
5
8
17
82
50
47
38
35
43
49
48
37
32
34
41
40
42
29
68
31
59
69
65
83
66
67
26
81
23
15
21
27
18
24
12
84
53
52
70
72
73
71
20
78
25
74
75
19
76
22
-1
EOF
